Version identifier: 22.1.1.0 | 2022-11-28 | 9160aff4d
CPXPARAM_ClockType                               1
CPXPARAM_Read_DataCheck                          1
CPXPARAM_Threads                                 1
CPXPARAM_TimeLimit                               7200
CPXPARAM_MIP_Tolerances_AbsMIPGap                0
CPXPARAM_MIP_Tolerances_MIPGap                   0
CPXPARAM_MIP_Tolerances_Integrality              0
Tried aggregator 3 times.
MIP Presolve eliminated 17490 rows and 1717 columns.
MIP Presolve modified 8759 coefficients.
Aggregator did 4885 substitutions.
Reduced MIP has 52740 rows, 11845 columns, and 164925 nonzeros.
Reduced MIP has 11845 binaries, 0 generals, 0 SOSs, and 0 indicators.
Presolve time = 0.35 sec. (225.93 ticks)
Probing time = 0.01 sec. (6.36 ticks)
Tried aggregator 1 time.
Detecting symmetries...
MIP Presolve eliminated 75 rows and 0 columns.
Reduced MIP has 52665 rows, 11845 columns, and 164635 nonzeros.
Reduced MIP has 11845 binaries, 0 generals, 0 SOSs, and 0 indicators.
Presolve time = 0.20 sec. (127.72 ticks)
Probing time = 0.01 sec. (6.34 ticks)
Clique table members: 3407.
MIP emphasis: balance optimality and feasibility.
MIP search method: dynamic search.
Parallel mode: none, using 1 thread.
Root relaxation solution time = 3148.83 sec. (1683486.57 ticks)

        Nodes                                         Cuts/
   Node  Left     Objective  IInf  Best Integer    Best Bound    ItCnt     Gap

      0     0     8150.0000  7868                   8150.0000  2119143         
      0     0     7123.1111  5940                  Cuts: 2650  2445642         
      0     0     7087.3333  5967                  Cuts: 1304  2674078         
      0     0     7086.0000  6089                  Cuts: 1007  2795620         
      0     0     7086.0000  6008                  Cuts: 1131  2985865         

Clique cuts applied:  28
Implied bound cuts applied:  189
Zero-half cuts applied:  2262
Lift and project cuts applied:  33
Gomory fractional cuts applied:  46

Root node processing (before b&c):
  Real time             = 7200.05 sec. (4205160.29 ticks)
Sequential b&c:
  Real time             =    0.00 sec. (0.00 ticks)
                          ------------
Total (root+branch&cut) = 7200.05 sec. (4205160.29 ticks)
Solution is infeasible.

---------------------
@@@ MIP_time_limit_infeasible
Traceback (most recent call last):
  File "/scratch/scherif/DiverseSAT-journal_sup/DiverseSAT_Supplementary_Experiments/experiment-1/cplex/jobs/../solvers/CPLEX-BIN.py", line 132, in <module>
    print(f">>> Benchmark {os.path.basename(cnf_file)} k {k} OPT {int(prob.solution.get_objective_value())}"
  File "/users/scherif/.local/lib/python3.9/site-packages/cplex/_internal/_subinterfaces.py", line 7211, in get_objective_value
    return CPX_PROC.getobjval(self._env._e, self._cplex._lp)
  File "/users/scherif/.local/lib/python3.9/site-packages/cplex/_internal/_procedural.py", line 2055, in getobjval
    check_status(env, status)
  File "/users/scherif/.local/lib/python3.9/site-packages/cplex/_internal/_procedural.py", line 249, in __call__
    raise CplexSolverError(error_string, env, status)
cplex.exceptions.errors.CplexSolverError: CPLEX Error  1217: No solution exists.
